num_images = 30;
universe = 443;
images = [{1, 3, 5, 7, 9, 11, 13, 15, 17, 19, 21, 278, 23, 279, 25, 407, 27, 29, 31, 33, 35, 37, 39, 41, 43, 45, 47, 49, 307, 308, 309, 310, 51, 52, 53, 54, 55, 56, 57, 58, 59, 60, 61, 62, 63, 64, 66, 68, 70, 334, 335, 336, 337, 338, 339, 340, 341, 342, 343, 344, 345, 346, 347, 120, 121, 122, 123}, {1, 2, 3, 4, 5, 6, 7, 8, 9, 10, 11, 12, 13, 14, 15, 16, 17, 18, 19, 20, 21, 22, 23, 24, 56, 57, 58, 59, 60, 61, 62, 63, 64, 65, 66, 67, 68, 69, 70, 71, 72, 74, 76, 78, 80, 82, 84, 86, 88, 90, 92, 94, 96, 98, 100, 102, 104, 106, 108, 110, 112, 114, 116, 118, 120, 122, 124, 126, 131, 133, 135, 165, 166, 167, 168, 169, 170, 171, 172, 173, 174, 175, 176, 177, 178, 179, 180, 181, 182, 183, 184, 185, 186, 187, 188, 189, 190, 191, 192, 193, 194, 195, 196, 197, 198, 199, 200, 201, 202, 233, 234, 235, 236, 237, 238, 239, 240, 241, 242, 278, 279, 280, 281, 282, 283, 284, 285, 286, 287, 288, 289, 290, 307, 308, 309, 310, 311, 312, 313, 320, 321, 322, 323, 324, 334, 335, 336, 337, 338, 345, 346, 347, 384, 385, 386, 387, 388, 389, 390, 391, 392, 393, 394, 407, 408, 409, 410, 418, 419, 420, 421, 422, 443}, {72, 73, 74, 75, 76, 77, 78, 79, 80, 81, 82, 83, 84, 85, 86, 87, 88, 89, 90, 91, 92, 93, 94, 95, 96, 97, 133, 134, 135, 136, 137, 139, 141, 143, 145, 147, 149, 151, 153, 155, 157, 159, 161, 163, 166, 168, 170, 172, 174, 176, 178, 180, 182, 185, 187, 189, 191, 193, 195, 197, 199, 201, 202, 203, 205, 207, 209, 211, 213, 215, 217, 219, 221, 223, 225, 227, 229, 231, 234, 238, 239, 240, 241, 242, 243, 244, 245, 246, 247, 248, 249, 250, 251, 252, 253, 254, 255, 256, 257, 258, 259, 260, 261, 262, 282, 283, 284, 285, 299, 311, 312, 313, 314, 315, 322, 323, 324, 325, 326, 327, 328, 329, 330, 348, 349, 350, 351, 352, 353, 354, 355, 356, 357, 358, 359, 373, 374, 375, 386, 387, 388, 389, 390, 391, 392, 393, 394, 418, 419, 420, 421, 422, 423, 424, 433, 434, 435, 436, 437, 438, 439, 440, 441}, {33, 34, 35, 36, 37, 38, 39, 40, 41, 42, 86, 87, 88, 89, 90, 91, 92, 93, 94, 95, 96, 97, 98, 99, 100, 101, 102, 103, 104, 105, 106, 107, 108, 109, 110, 111, 112, 113, 114, 115, 116, 117, 118, 119, 139, 141, 142, 143, 144, 145, 146, 147, 148, 149, 150, 151, 152, 153, 154, 155, 156, 157, 158, 159, 160, 161, 162, 163, 164, 165, 166, 167, 168, 169, 170, 171, 172, 173, 174, 175, 176, 177, 178, 179, 189, 190, 191, 192, 233, 234, 236, 239, 241, 243, 245, 247, 249, 251, 253, 255, 257, 259, 261, 264, 265, 266, 267, 268, 269, 270, 271, 272, 273, 274, 276, 277, 282, 283, 284, 285, 286, 287, 288, 289, 290, 291, 292, 293, 294, 299, 300, 301, 302, 303, 304, 305, 306, 316, 317, 318, 319, 320, 321, 322, 323, 324, 325, 326, 327, 328, 329, 330, 331, 332, 333, 376, 377, 378, 379, 380, 381, 382, 383, 384, 385, 410, 411, 412, 413, 414, 415, 416, 417, 442}, {21, 22, 23, 24, 25, 26, 27, 28, 29, 30, 31, 32, 33, 34, 35, 36, 37, 38, 39, 40, 41, 42, 43, 44, 45, 46, 47, 48, 49, 50, 51, 52, 53, 54, 55, 56, 57, 108, 109, 110, 111, 112, 113, 114, 115, 116, 117, 118, 119, 120, 121, 122, 123, 168, 169, 170, 171, 172, 173, 174, 175, 176, 177, 178, 179, 180, 181, 182, 183, 184, 233, 270, 271, 272, 273, 274, 275, 276, 277, 286, 288, 291, 293, 295, 296, 297, 298, 316, 317, 318, 319, 320, 321, 331, 332, 333, 339, 340, 341, 342, 343, 344, 410, 411, 412, 413, 414, 442}, {17, 18, 19, 20, 21, 22, 23, 24, 25, 26, 27, 28, 29, 30, 31, 32, 33, 34, 35, 36, 37, 38, 39, 40, 41, 42, 43, 44, 45, 46, 47, 48, 49, 50, 51, 52, 53, 54, 55, 56, 57, 58, 59, 84, 85, 86, 87, 88, 89, 90, 91, 92, 93, 94, 95, 96, 97, 98, 99, 100, 101, 102, 103, 104, 105, 106, 107, 108, 109, 110, 111, 112, 113, 114, 115, 116, 117, 118, 119, 120, 121, 122, 123, 165, 166, 167, 168, 169, 170, 171, 172, 173, 174, 175, 176, 177, 178, 179, 180, 181, 182, 183, 184, 185, 186, 187, 188, 189, 190, 191, 192, 193, 194, 233, 234, 235, 236, 237, 238, 239, 240, 241, 242, 243, 244, 266, 267, 268, 269, 270, 271, 272, 273, 274, 275, 276, 277, 278, 279, 280, 281, 282, 283, 284, 285, 286, 287, 288, 289, 290, 291, 292, 293, 294, 295, 296, 297, 298, 303, 305, 307, 309, 316, 317, 318, 319, 320, 321, 322, 323, 324, 331, 332, 333, 339, 340, 341, 342, 343, 344, 384, 385, 408, 409, 410, 411, 412, 413, 414, 415, 442, 443}, {227, 228, 229, 230, 231, 232, 314}, {295, 296, 297, 298, 271, 272, 273, 274, 275, 317}, {37, 38, 39, 40, 88, 89, 90, 91, 92, 93, 94, 95, 96, 97, 98, 99, 100, 101, 102, 103, 104, 105, 106, 107, 108, 109, 110, 111, 112, 113, 114, 115, 141, 145, 146, 147, 148, 149, 150, 151, 152, 153, 154, 155, 156, 157, 158, 159, 160, 161, 162, 163, 164, 165, 166, 167, 168, 169, 170, 171, 172, 173, 174, 175, 176, 177, 264, 265, 266, 267, 268, 269, 270, 271, 272, 273, 282, 283, 284, 285, 286, 287, 288, 289, 290, 291, 292, 293, 294, 299, 300, 301, 302, 303, 304, 305, 306, 316, 317, 318, 319, 322, 323, 324, 325, 326, 327, 328, 329, 330, 331, 332, 376, 377, 378, 379, 380, 381, 382, 383, 384, 385, 411, 412, 413, 414, 415, 416, 417, 442}, {5, 6, 7, 8, 278, 407, 307, 308, 52, 53, 54, 56, 55, 58, 59, 60, 61, 62, 57, 63, 334, 335, 337, 339, 340, 342, 345, 346, 347}, {231, 232, 137, 138, 139, 140, 141, 142, 330, 145, 314, 315}, {395, 396, 397, 429, 430, 431, 432, 433, 434, 435, 436, 437, 438, 439, 440, 441, 314, 315, 203, 204, 205, 206, 207, 208, 209, 210, 211, 212, 213, 214, 215, 216, 217, 218, 219, 220, 221, 222, 223, 224, 225, 226, 227, 228, 350, 352, 354, 356, 358, 359, 360, 361, 363, 365, 369, 371}, {72, 73, 74, 75, 76, 77, 78, 79, 80, 81, 82, 83, 84, 85, 86, 87, 88, 89, 90, 91, 92, 93, 94, 95, 96, 97, 98, 99, 100, 101, 131, 132, 133, 134, 135, 136, 155, 156, 157, 158, 159, 160, 161, 162, 163, 164, 165, 166, 167, 168, 169, 170, 171, 172, 173, 203, 204, 205, 206, 207, 208, 209, 210, 211, 212, 213, 214, 215, 216, 217, 218, 219, 220, 222, 241, 242, 243, 244, 245, 246, 247, 248, 249, 250, 251, 252, 253, 254, 284, 285, 286, 287, 299, 300, 313, 324, 325, 326, 327, 328, 352, 353, 354, 355, 356, 357, 358, 359, 367, 368, 374, 376, 378, 380, 382, 384, 386, 388, 390, 392, 394, 421, 422, 433, 434, 435, 436, 437, 438, 439, 440, 441}, {11, 12, 13, 14, 15, 16, 17, 18, 19, 20, 21, 22, 23, 24, 25, 26, 27, 28, 29, 30, 31, 32, 33, 34, 35, 36, 37, 38, 39, 40, 41, 42, 43, 44, 45, 46, 47, 48, 53, 54, 55, 56, 57, 58, 59, 60, 61, 62, 63, 64, 65, 66, 67, 68, 69, 70, 71, 114, 115, 116, 117, 118, 119, 120, 121, 122, 123, 124, 125, 126, 127, 128, 182, 183, 233, 267, 268, 269, 270, 271, 272, 273, 274, 275, 276, 277, 278, 279, 280, 281, 295, 296, 307, 308, 309, 310, 316, 319, 331, 332, 333, 334, 335, 336, 337, 338, 339, 340, 341, 342, 343, 344, 345, 346, 398, 399, 401, 403, 405, 410, 413, 414, 425, 426}, {64, 65, 66, 67, 68, 69, 63, 345, 58, 59, 60, 61, 62, 57}, {13, 14, 15, 16, 17, 18, 19, 20, 21, 22, 23, 24, 25, 26, 27, 28, 29, 30, 31, 32, 33, 34, 35, 36, 37, 38, 39, 40, 41, 42, 43, 44, 45, 46, 47, 48, 49, 50, 51, 52, 53, 54, 55, 56, 57, 58, 59, 60, 61, 80, 81, 82, 83, 84, 85, 86, 87, 88, 89, 90, 91, 92, 93, 94, 95, 96, 97, 98, 99, 100, 101, 102, 103, 104, 105, 106, 107, 108, 109, 110, 111, 112, 113, 114, 115, 116, 117, 118, 119, 120, 121, 122, 123, 161, 162, 163, 164, 165, 166, 167, 168, 169, 170, 171, 172, 173, 174, 175, 176, 177, 178, 179, 180, 181, 182, 183, 184, 185, 186, 187, 188, 189, 190, 191, 192, 193, 194, 195, 196, 197, 198, 199, 200, 233, 234, 235, 236, 237, 238, 239, 240, 241, 242, 243, 244, 245, 246, 247, 248, 265, 266, 267, 268, 269, 270, 271, 272, 273, 274, 275, 276, 277, 278, 279, 280, 281, 282, 283, 284, 285, 286, 287, 288, 289, 290, 291, 292, 293, 294, 295, 296, 297, 298, 299, 300, 301, 302, 303, 304, 305, 306, 307, 308, 309, 310, 311, 312, 313, 316, 317, 318, 319, 320, 321, 322, 323, 324, 325, 331, 332, 333, 337, 338, 339, 340, 341, 342, 343, 344, 382, 383, 384, 385, 386, 387, 408, 409, 410, 411, 412, 413, 414, 415, 416, 418, 419, 442, 443}, {76, 77, 78, 79, 80, 81, 82, 83, 84, 85, 86, 87, 88, 89, 90, 91, 92, 93, 94, 95, 96, 97, 98, 99, 149, 150, 151, 152, 153, 154, 155, 156, 157, 158, 159, 160, 161, 162, 163, 164, 165, 166, 167, 168, 169, 170, 171, 243, 244, 245, 246, 247, 248, 249, 250, 251, 252, 253, 254, 255, 256, 257, 258, 260, 285, 299, 325, 326, 327, 328, 329, 373, 374, 375, 421, 422, 423, 424}, {1, 2, 3, 4, 5, 6, 68, 69, 70, 71, 72, 73, 74, 75, 76, 77, 128, 129, 130, 131, 132, 133, 134, 135, 136, 202, 203, 204, 205, 206, 207, 208, 209, 210, 211, 212, 213, 214, 215, 216, 217, 218, 345, 346, 347, 358, 359, 360, 361, 362, 363, 364, 365, 366, 367, 368, 369, 370, 395, 396, 397, 401, 402, 403, 404, 405, 406, 422, 425, 426, 427, 429, 431, 433, 434, 436, 437, 438, 439, 440, 441}, {128, 1, 2, 129, 398, 399, 400, 401, 402, 403, 404, 405, 278, 406, 279, 407, 295, 296, 297, 425, 426, 427, 45, 46, 47, 48, 49, 50, 307, 308, 309, 310, 51, 52, 53, 54, 55, 56, 57, 58, 59, 60, 61, 62, 63, 64, 65, 66, 67, 68, 69, 70, 71, 335, 336, 337, 338, 339, 340, 341, 342, 343, 344, 345, 346, 347, 428, 120, 121, 122, 123, 124, 125, 126, 127}, {31, 32, 33, 34, 72, 73, 74, 75, 76, 77, 78, 79, 80, 81, 82, 83, 84, 85, 86, 87, 88, 89, 90, 91, 92, 93, 94, 95, 96, 97, 98, 99, 100, 101, 102, 103, 104, 105, 106, 107, 108, 109, 110, 111, 112, 113, 114, 115, 116, 117, 157, 158, 159, 160, 161, 162, 163, 164, 165, 166, 167, 168, 169, 170, 171, 172, 173, 174, 175, 215, 216, 217, 218, 219, 220, 221, 222, 226, 239, 240, 241, 242, 243, 244, 245, 246, 247, 248, 249, 250, 251, 252, 283, 284, 285, 286, 287, 288, 289, 290, 291, 292, 299, 300, 301, 302, 303, 304, 305, 306, 312, 313, 320, 321, 323, 324, 325, 326, 327, 331, 332, 333, 349, 350, 351, 352, 353, 354, 355, 356, 357, 358, 373, 378, 379, 380, 381, 382, 383, 384, 385, 386, 387, 388, 389, 390, 391, 396, 397, 410, 411, 412, 413, 416, 417, 421, 422, 423, 429, 430, 431, 432, 433, 434, 435, 436, 438, 440, 442}, {1, 2, 3, 4, 5, 6, 7, 8, 9, 10, 11, 12, 13, 14, 15, 16, 17, 18, 19, 20, 21, 22, 23, 24, 25, 26, 27, 28, 54, 55, 56, 57, 58, 59, 60, 61, 62, 63, 64, 65, 66, 67, 68, 69, 70, 71, 72, 73, 74, 75, 76, 77, 78, 79, 80, 81, 82, 83, 84, 85, 86, 87, 88, 89, 110, 111, 112, 113, 114, 115, 116, 117, 118, 119, 120, 121, 122, 123, 124, 125, 126, 127, 128, 129, 130, 131, 132, 133, 134, 135, 136, 166, 167, 168, 169, 170, 171, 172, 173, 174, 175, 176, 177, 178, 179, 180, 181, 182, 183, 184, 185, 186, 187, 188, 189, 190, 191, 192, 193, 194, 195, 196, 197, 198, 199, 200, 201, 202, 203, 204, 205, 206, 233, 234, 235, 236, 237, 238, 239, 240, 241, 242, 277, 278, 279, 280, 281, 282, 283, 284, 285, 286, 287, 288, 289, 290, 307, 308, 309, 310, 311, 312, 313, 320, 321, 322, 323, 324, 332, 333, 334, 335, 336, 337, 338, 339, 340, 341, 345, 346, 347, 354, 355, 356, 357, 358, 359, 360, 361, 362, 386, 387, 388, 389, 390, 391, 392, 393, 394, 398, 405, 406, 407, 408, 409, 410, 411, 418, 419, 420, 421, 422, 425, 426, 436, 437, 442, 443}, {19, 20, 21, 22, 23, 24, 25, 26, 27, 28, 29, 30, 31, 32, 33, 34, 35, 36, 37, 38, 39, 40, 41, 42, 43, 44, 45, 46, 47, 48, 49, 50, 51, 52, 53, 54, 55, 56, 57, 58, 92, 93, 94, 95, 106, 107, 108, 109, 110, 111, 112, 113, 114, 115, 116, 117, 118, 119, 120, 121, 122, 123, 165, 166, 167, 168, 169, 170, 171, 172, 173, 174, 175, 176, 177, 178, 179, 180, 181, 182, 183, 184, 185, 186, 233, 234, 269, 270, 271, 272, 273, 274, 275, 276, 277, 278, 279, 280, 281, 282, 283, 284, 285, 286, 287, 288, 289, 290, 291, 292, 293, 294, 295, 296, 297, 298, 316, 317, 318, 319, 320, 321, 331, 332, 333, 339, 340, 341, 342, 343, 344, 384, 385, 408, 409, 410, 411, 412, 413, 414, 442}, {94, 95, 96, 97, 98, 99, 100, 101, 102, 103, 104, 105, 106, 107, 108, 109, 110, 111, 151, 152, 153, 154, 155, 156, 157, 158, 159, 160, 161, 162, 163, 164, 165, 166, 167, 168, 169, 264, 265, 266, 267, 268, 269, 270, 271, 272, 286, 287, 288, 289, 290, 291, 292, 293, 294, 300, 301, 302, 303, 304, 305, 306, 316, 317, 318, 319, 376, 377, 378, 379, 380, 381, 382, 383, 384, 385, 413, 414, 415, 416, 417, 442}, {272, 273, 274, 275, 295, 39, 40, 41, 42, 43, 44, 45, 46, 47, 48, 49, 50, 316, 317, 318, 319, 296, 297, 298}, {261, 262, 263, 330, 139, 140, 141, 142, 143, 144, 145, 146}, {1, 2, 3, 4, 5, 6, 7, 8, 9, 10, 11, 12, 13, 14, 15, 16, 17, 18, 19, 20, 21, 22, 23, 24, 25, 26, 55, 56, 57, 58, 59, 60, 61, 62, 63, 64, 65, 66, 67, 68, 69, 70, 71, 72, 73, 74, 75, 76, 77, 78, 79, 80, 81, 82, 83, 84, 85, 86, 87, 88, 89, 90, 91, 92, 93, 94, 95, 96, 97, 98, 99, 100, 101, 102, 103, 104, 105, 106, 107, 108, 109, 110, 111, 112, 113, 114, 115, 116, 117, 118, 119, 120, 121, 122, 123, 124, 125, 126, 127, 128, 129, 130, 131, 132, 133, 134, 135, 136, 153, 154, 155, 156, 157, 158, 159, 160, 161, 162, 163, 164, 165, 166, 167, 168, 169, 170, 171, 172, 173, 174, 175, 176, 177, 178, 179, 180, 181, 182, 183, 184, 185, 186, 187, 188, 189, 190, 191, 192, 193, 194, 195, 196, 197, 198, 199, 200, 201, 202, 203, 204, 205, 206, 207, 208, 209, 210, 233, 234, 235, 236, 237, 238, 239, 240, 241, 242, 243, 244, 245, 246, 247, 248, 249, 250, 251, 252, 253, 254, 255, 256, 278, 279, 280, 281, 282, 283, 284, 285, 286, 287, 288, 289, 290, 299, 300, 301, 302, 307, 308, 309, 310, 311, 312, 313, 320, 321, 322, 323, 324, 325, 326, 327, 328, 329, 334, 335, 336, 337, 338, 339, 345, 346, 347, 350, 351, 352, 353, 354, 355, 356, 357, 358, 359, 360, 361, 362, 363, 364, 365, 366, 367, 373, 374, 375, 376, 377, 378, 379, 380, 381, 382, 383, 384, 385, 386, 387, 388, 389, 390, 391, 392, 393, 394, 398, 399, 400, 401, 402, 403, 404, 405, 406, 407, 408, 409, 410, 416, 418, 419, 420, 421, 422, 425, 426, 433, 434, 435, 436, 437, 438, 439, 440, 441, 443}, {72, 73, 74, 75, 76, 77, 78, 79, 80, 81, 82, 83, 84, 85, 86, 87, 88, 89, 90, 91, 92, 93, 94, 95, 96, 97, 98, 99, 100, 101, 102, 103, 135, 136, 159, 160, 161, 162, 163, 164, 165, 166, 167, 168, 169, 170, 171, 172, 173, 174, 175, 176, 177, 178, 179, 180, 181, 182, 183, 184, 185, 186, 187, 188, 189, 190, 191, 192, 193, 194, 195, 196, 213, 214, 215, 216, 217, 218, 219, 220, 221, 222, 223, 224, 233, 234, 235, 238, 239, 240, 241, 242, 243, 244, 245, 246, 247, 248, 249, 250, 281, 282, 283, 284, 285, 286, 287, 288, 289, 299, 300, 301, 311, 312, 313, 321, 322, 323, 324, 325, 326, 348, 349, 350, 351, 352, 353, 354, 355, 356, 357, 358, 359, 373, 374, 375, 380, 381, 382, 383, 384, 385, 386, 387, 388, 389, 390, 391, 392, 393, 395, 396, 397, 410, 418, 419, 420, 421, 422, 423, 424, 433, 434, 435, 436, 437, 438, 439, 440, 441}, {15, 16, 17, 18, 19, 20, 21, 22, 23, 24, 25, 26, 27, 28, 29, 30, 31, 32, 33, 34, 35, 36, 37, 38, 39, 40, 41, 42, 43, 44, 45, 46, 47, 48, 49, 50, 51, 52, 53, 54, 55, 56, 57, 58, 59, 60, 82, 83, 84, 85, 86, 87, 88, 89, 90, 91, 92, 93, 94, 95, 96, 97, 98, 99, 100, 101, 102, 103, 104, 105, 106, 107, 108, 109, 110, 111, 112, 113, 114, 115, 116, 117, 118, 119, 120, 121, 122, 123, 163, 164, 165, 166, 167, 168, 169, 170, 171, 172, 173, 174, 175, 176, 177, 178, 179, 180, 181, 182, 183, 184, 185, 186, 187, 188, 189, 190, 191, 192, 193, 194, 195, 196, 197, 198, 233, 234, 235, 236, 237, 238, 239, 240, 241, 242, 243, 244, 245, 246, 268, 269, 270, 271, 272, 273, 274, 275, 276, 277, 278, 279, 280, 281, 282, 283, 284, 285, 286, 287, 288, 289, 290, 291, 292, 293, 294, 295, 296, 297, 298, 299, 300, 301, 302, 303, 304, 307, 308, 309, 310, 311, 312, 313, 316, 317, 318, 319, 320, 321, 322, 323, 324, 331, 332, 333, 339, 340, 341, 342, 343, 344, 384, 385, 408, 409, 410, 411, 412, 413, 414, 415, 442, 443}, {395, 396, 398, 399, 400, 401, 402, 403, 404, 405, 406, 426, 427, 428, 429, 430, 436, 437, 438, 439, 440, 441, 205, 206, 207, 208, 209, 210, 211, 212, 213, 214, 215, 216, 361, 362, 363, 364, 365, 366, 367, 368, 369, 370, 371, 372}, {1, 2, 3, 4, 5, 6, 7, 8, 9, 10, 11, 12, 13, 14, 15, 16, 17, 18, 19, 20, 21, 22, 47, 48, 49, 50, 51, 52, 53, 54, 55, 56, 57, 58, 59, 60, 61, 62, 66, 67, 68, 69, 70, 71, 72, 73, 122, 123, 126, 127, 128, 129, 130, 131, 132, 133, 134, 135, 136, 191, 192, 193, 194, 195, 196, 197, 198, 199, 200, 201, 202, 203, 204, 205, 206, 207, 208, 235, 236, 237, 278, 279, 296, 297, 298, 307, 308, 309, 310, 334, 335, 336, 337, 338, 344, 345, 346, 347, 356, 357, 358, 359, 360, 361, 362, 363, 364, 390, 391, 392, 393, 394, 403, 404, 405, 406, 407, 408, 418, 421, 422, 434, 435, 436, 437, 438, 439}];
costs = [282070, 523800, 451970, 344080, 415800, 583200, 54980, 52200, 334520, 212840, 77460, 383290, 320480, 370700, 122400, 676800, 405000, 424800, 368040, 473080, 795600, 493200, 387000, 73800, 53650, 689490, 313870, 608400, 275480, 380970];
clouds = [{9, 11, 17, 19, 21, 279, 25, 27, 29, 31, 33, 39, 43, 51, 52, 308, 309, 310, 59, 61, 63, 64, 334, 336, 337, 338, 339, 340, 342, 345, 122}, {3, 4, 7, 10, 12, 13, 15, 18, 20, 22, 23, 24, 60, 62, 63, 64, 65, 66, 68, 70, 71, 72, 74, 76, 80, 82, 88, 92, 94, 98, 100, 102, 108, 110, 112, 116, 118, 120, 122, 124, 126, 133, 165, 166, 168, 170, 175, 178, 179, 180, 184, 185, 187, 188, 190, 194, 195, 198, 200, 202, 233, 234, 239, 240, 241, 278, 279, 281, 284, 285, 286, 288, 290, 307, 308, 310, 322, 338, 345, 347, 386, 388, 390, 392, 394, 408, 409, 421}, {72, 73, 74, 75, 77, 80, 81, 82, 83, 84, 85, 86, 88, 90, 91, 92, 93, 95, 97, 133, 134, 137, 141, 143, 145, 147, 149, 155, 157, 159, 161, 163, 168, 178, 182, 185, 187, 189, 191, 193, 197, 199, 201, 202, 205, 209, 213, 215, 217, 219, 221, 223, 229, 231, 234, 238, 239, 240, 243, 244, 245, 246, 247, 248, 249, 251, 254, 255, 256, 259, 260, 261, 262, 282, 285, 299, 313, 314, 323, 324, 325, 327, 348, 349, 350, 351, 355, 358, 374, 386, 388, 389, 390, 391, 393, 418, 419, 421, 423, 434, 436, 437, 438, 439, 440, 441}, {259, 264, 266, 269, 142, 270, 271, 273, 277, 150, 152, 410, 284, 412, 156, 414, 160, 417, 159, 291, 36, 37, 292, 293, 40, 169, 294, 171, 299, 300, 301, 319, 192, 320, 332, 86, 119, 90, 92, 95, 98, 99, 249, 104, 234, 108, 109, 241, 115, 118, 247, 377, 378, 380, 382, 383}, {34, 296, 171, 48, 273, 343, 25, 317, 413}, {270, 271, 274, 275, 25, 282, 411, 30, 37, 167, 172, 175, 176, 50, 58, 86, 87, 89, 95, 96, 108, 111, 114, 120, 121}, {}, {298, 271, 272, 275, 317}, {385, 266, 267, 269, 141, 271, 272, 273, 150, 151, 153, 282, 411, 284, 157, 156, 413, 160, 158, 285, 286, 287, 164, 165, 166, 39, 167, 168, 169, 170, 171, 172, 174, 175, 288, 177, 299, 300, 290, 301, 302, 304, 414, 417, 442, 316, 292, 318, 319, 323, 327, 329, 330, 331, 332, 415, 89, 91, 93, 95, 96, 97, 98, 99, 103, 416, 106, 107, 108, 110, 111, 113, 114, 378, 381, 382}, {5, 6, 7, 8, 278, 407, 307, 308, 52, 53, 54, 56, 55, 58, 59, 60, 61, 62, 57, 63, 334, 335, 337, 339, 340, 342, 346, 347}, {}, {396, 430, 431, 432, 440, 314, 315, 208, 213, 216, 217, 220, 221, 222, 225, 356, 361, 363, 369}, {286, 164, 166, 170, 299, 435, 324, 326, 328, 77, 78, 88, 220, 98, 354, 355, 358, 241, 242, 245, 247, 249}, {267, 269, 403, 277, 21, 278, 281, 25, 27, 29, 414, 30, 31, 33, 39, 296, 45, 48, 307, 182, 310, 60, 65, 69, 333, 335, 336, 338, 344, 346, 117, 118, 123, 127}, {64, 66, 67, 69, 345, 60, 61}, {387, 266, 268, 271, 15, 273, 275, 22, 23, 31, 289, 418, 35, 163, 294, 39, 167, 295, 42, 170, 296, 297, 46, 302, 49, 59, 187, 189, 320, 323, 338, 340, 88, 344, 92, 97, 100, 102, 107, 235, 109, 239, 118, 246}, {256, 257, 258, 260, 151, 153, 154, 155, 157, 158, 160, 161, 163, 164, 421, 166, 167, 423, 169, 424, 171, 299, 325, 326, 327, 328, 329, 77, 78, 79, 81, 83, 86, 87, 88, 90, 91, 92, 93, 96, 97, 98, 99, 243, 244, 245, 373, 374, 248, 250, 251, 255}, {128, 1, 2, 3, 4, 5, 6, 129, 130, 131, 132, 133, 134, 135, 136, 395, 396, 397, 401, 402, 404, 405, 406, 422, 425, 426, 429, 431, 433, 434, 437, 438, 439, 440, 441, 68, 69, 70, 71, 72, 73, 74, 75, 76, 77, 202, 203, 204, 206, 208, 209, 210, 211, 212, 213, 214, 215, 216, 217, 218, 345, 346, 347, 358, 359, 360, 361, 362, 363, 364, 365, 366, 367, 369, 370}, {128, 1, 2, 129, 398, 399, 400, 401, 402, 403, 405, 278, 407, 279, 406, 296, 297, 425, 426, 427, 45, 46, 47, 48, 49, 50, 51, 52, 307, 54, 55, 56, 308, 58, 59, 309, 310, 62, 63, 64, 65, 68, 69, 71, 335, 337, 338, 339, 340, 341, 342, 343, 344, 345, 347, 428, 122, 123, 124, 125, 126, 127}, {31, 33, 34, 74, 75, 76, 77, 78, 79, 81, 82, 83, 84, 85, 86, 87, 92, 96, 97, 99, 102, 104, 105, 106, 107, 109, 111, 112, 113, 114, 115, 116, 158, 163, 164, 166, 167, 168, 169, 171, 172, 215, 218, 219, 220, 221, 222, 226, 241, 242, 246, 248, 250, 252, 283, 287, 288, 289, 290, 291, 292, 299, 300, 302, 303, 305, 306, 312, 313, 321, 324, 325, 326, 327, 331, 333, 350, 351, 353, 354, 355, 357, 373, 379, 381, 382, 385, 386, 389, 390, 391, 396, 397, 410, 413, 416, 417, 423, 430, 431, 434, 435, 438, 440}, {129, 3, 132, 5, 133, 134, 390, 9, 391, 393, 12, 14, 398, 17, 277, 22, 407, 409, 410, 283, 411, 285, 286, 311, 288, 419, 420, 421, 425, 426, 178, 180, 309, 181, 182, 55, 56, 57, 184, 187, 60, 61, 190, 191, 320, 321, 443, 69, 70, 71, 197, 198, 74, 205, 78, 80, 81, 337, 84, 87, 88, 354, 355, 359, 360, 361, 238, 112, 115, 120, 121, 126}, {19, 21, 24, 25, 33, 35, 36, 40, 41, 42, 43, 44, 48, 49, 50, 51, 52, 55, 58, 94, 106, 108, 112, 113, 115, 116, 117, 118, 119, 121, 166, 169, 170, 171, 175, 176, 177, 179, 180, 182, 183, 185, 186, 270, 271, 272, 275, 276, 277, 279, 280, 282, 283, 287, 288, 290, 293, 294, 295, 297, 316, 317, 318, 320, 333, 339, 340, 341, 343, 344, 384, 385, 408, 411, 412, 413, 442}, {384, 385, 268, 270, 272, 151, 153, 154, 413, 414, 159, 162, 291, 292, 166, 168, 169, 303, 305, 442, 317, 318, 94, 96, 97, 98, 99, 101, 104, 105, 107, 109, 110, 376, 378, 379, 381}, {40, 41, 296, 298, 44, 272, 275, 317, 318, 319}, {261, 262, 263, 330, 139, 140, 143, 144, 145}, {1, 2, 3, 4, 6, 7, 8, 9, 10, 11, 12, 13, 14, 17, 18, 20, 24, 26, 57, 60, 61, 62, 64, 65, 68, 72, 73, 74, 76, 78, 79, 80, 81, 86, 88, 89, 90, 93, 94, 95, 97, 99, 101, 102, 109, 110, 111, 112, 113, 114, 116, 123, 124, 126, 130, 131, 135, 136, 153, 156, 157, 158, 160, 164, 166, 167, 168, 170, 171, 173, 174, 175, 177, 178, 179, 180, 181, 182, 183, 184, 188, 192, 193, 194, 195, 196, 199, 200, 203, 204, 206, 207, 208, 209, 210, 235, 237, 238, 239, 240, 241, 243, 244, 245, 249, 250, 252, 253, 254, 255, 279, 280, 281, 282, 283, 284, 285, 287, 288, 299, 301, 302, 307, 308, 310, 312, 313, 320, 322, 323, 324, 328, 334, 335, 337, 338, 345, 347, 350, 352, 354, 355, 358, 359, 361, 363, 364, 365, 366, 373, 374, 375, 376, 377, 380, 382, 384, 385, 387, 388, 389, 390, 393, 401, 402, 404, 406, 408, 410, 416, 418, 419, 421, 422, 426, 433, 434, 435, 436, 437, 438, 440, 443}, {72, 73, 74, 75, 76, 77, 79, 80, 81, 82, 83, 84, 85, 86, 87, 88, 90, 91, 92, 93, 94, 96, 97, 99, 100, 102, 103, 135, 136, 159, 160, 161, 162, 163, 164, 166, 167, 168, 169, 170, 172, 173, 174, 176, 177, 178, 179, 180, 181, 182, 184, 185, 186, 187, 188, 189, 191, 192, 193, 194, 195, 196, 214, 215, 216, 217, 218, 219, 220, 222, 223, 224, 233, 234, 235, 238, 239, 240, 242, 243, 244, 245, 246, 248, 249, 250, 281, 282, 283, 284, 285, 286, 287, 288, 289, 299, 300, 301, 312, 313, 322, 323, 324, 325, 326, 348, 349, 350, 351, 352, 353, 354, 355, 356, 357, 358, 359, 373, 374, 375, 380, 381, 382, 384, 385, 386, 387, 388, 389, 391, 392, 393, 396, 397, 418, 419, 421, 422, 424, 434, 435, 436, 437, 439, 440, 441}, {16, 17, 18, 24, 29, 32, 33, 34, 37, 38, 39, 41, 43, 44, 45, 46, 49, 50, 54, 56, 83, 85, 86, 90, 91, 92, 94, 95, 96, 98, 99, 100, 101, 102, 103, 104, 106, 107, 110, 111, 115, 116, 117, 118, 120, 122, 163, 164, 165, 166, 167, 169, 170, 172, 175, 176, 177, 178, 181, 184, 186, 190, 192, 195, 196, 197, 198, 234, 235, 236, 239, 241, 242, 243, 245, 246, 268, 270, 271, 272, 273, 274, 275, 276, 278, 280, 281, 284, 285, 286, 287, 288, 289, 290, 292, 293, 294, 296, 297, 298, 299, 300, 302, 308, 309, 311, 312, 317, 318, 321, 322, 324, 331, 333, 342, 344, 384, 408, 409, 410, 411, 412, 413, 415, 442, 443}, {361, 362, 428, 396, 430, 400, 402, 436, 406, 215, 216}, {11, 237, 15, 307, 437}];
areas = [2687, 17, 31, 571, 259, 479, 382, 208, 579, 798, 657, 1027, 1932, 160, 4144, 339, 85, 701, 96, 60, 101, 147, 1454, 2097, 241, 796, 13, 37520, 1696, 27206, 16579, 11905, 7241, 5921, 2373, 4781, 27261, 39, 1181, 1566, 5325, 9148, 236, 2536, 1794, 232, 8652, 817, 7339, 2960, 499, 148, 22, 35024, 114, 6019, 215, 440, 119, 240, 5703, 13837, 14282, 1546, 2737, 576, 1857, 851, 11468, 300, 690, 16741, 57, 223, 174, 629, 878, 73, 1423, 234, 84, 562, 2620, 2458, 98, 1733, 17312, 3263, 1694, 416, 24, 4065, 0, 385, 1460, 27, 191, 52, 110, 233, 779, 15, 817, 725, 10, 34, 155, 279, 72, 662, 2293, 1570, 1189, 1994, 367, 1747, 1468, 64, 9, 238, 126, 1313, 1928, 103, 15, 454, 318, 121, 1, 32, 991, 66, 102, 291, 1, 65, 531, 15, 10, 15, 10, 3, 96, 5, 0, 709, 49, 1724, 1650, 22, 214, 719, 3, 3, 1208, 78, 4, 67, 4, 64, 223, 0, 347, 1596, 563, 3803, 259, 33, 497, 38, 8, 332, 277, 302, 6, 23, 419, 881, 589, 227, 440, 677, 391, 1995, 191, 2062, 1, 2158, 2014, 492, 192, 318, 0, 376, 458, 196, 1473, 3571, 58, 5325, 145, 12, 34614, 1219, 418, 87, 4, 352, 6745, 472, 124, 3425, 2029, 848, 44338, 1719, 279, 4, 737, 3438, 3938, 1956, 774, 3900, 160, 4126, 1648, 555, 280, 425, 872, 2899, 787, 117, 815, 557, 5268, 7088, 1409, 13239, 627, 136, 2778, 21, 441, 3, 1882, 8, 5699, 12, 47608, 0, 19, 11, 8521, 2, 2540, 10, 25941, 5, 19987, 0, 34, 1083, 8468, 6350, 2936, 5370, 142, 5225, 1087, 8414, 702, 1957, 0, 160, 27558, 7764, 5136, 21084, 468, 509, 925, 94, 132, 638, 90, 98, 212, 1929, 511, 674, 737, 134, 1334, 242, 3672, 597, 1293, 126, 3049, 896, 144, 1654, 261, 447, 5600, 4011, 1859, 3236, 2730, 1379, 638, 480, 19, 2614, 31143, 17330, 127, 902, 459, 2389, 114, 2602, 881, 278, 77346, 1329, 502, 35, 15, 48, 244, 0, 3797, 2237, 563, 6, 9, 6653, 3875, 2411, 1840, 46, 79, 733, 4927, 303, 0, 2569, 1398, 2, 179, 39, 4817, 211, 77, 452, 13980, 22, 12874, 488, 835, 152, 262, 104, 266, 1046, 3098, 2389, 2873, 19546, 143, 1641, 82, 350, 131, 194, 2178, 2900, 414, 569, 9899, 10530, 2381, 22, 42646, 1460, 22, 3920, 2787, 250, 392, 878, 3214, 4118, 195, 1498, 1184, 9436, 5144, 521, 97047, 216, 283, 459, 432, 12454, 21970, 37, 320, 283, 3928, 1947, 5138, 84052, 1532, 29, 590, 3511, 84, 13810, 510, 3600, 6886, 3602, 1612, 529, 222, 4837, 8926, 1144, 2581, 8103, 52472, 10001, 2080, 852, 11096, 1434, 2842, 7020, 106639];
max_cloud_area = 497703524;
resolution = [50, 30, 50, 50, 30, 30, 50, 30, 50, 50, 50, 50, 50, 50, 30, 30, 30, 30, 50, 50, 30, 30, 30, 30, 50, 50, 50, 30, 50, 50];
incidence_angle = [331, 297, 180, 151, 131, 450, 155, 209, 164, 176, 189, 232, 314, 475, 298, 476, 200, 197, 479, 458, 475, 373, 173, 259, 174, 333, 279, 427, 246, 463];
